nohup: ignoring input
2024-06-23 17:37:01.584677: I external/local_tsl/tsl/cuda/cudart_stub.cc:32] Could not find cuda drivers on your machine, GPU will not be used.
2024-06-23 17:37:01.587547: I external/local_tsl/tsl/cuda/cudart_stub.cc:32] Could not find cuda drivers on your machine, GPU will not be used.
2024-06-23 17:37:01.625167: I tensorflow/core/platform/cpu_feature_guard.cc:210] This TensorFlow binary is optimized to use available CPU instructions in performance-critical operations.
To enable the following instructions: AVX2 FMA, in other operations, rebuild TensorFlow with the appropriate compiler flags.
2024-06-23 17:37:04.886247: W tensorflow/compiler/tf2tensorrt/utils/py_utils.cc:38] TF-TRT Warning: Could not find TensorRT
Set parameter TokenServer to value "vm-gurobi-license.doc.ic.ac.uk"
Set parameter IntegralityFocus to value 1
Set parameter OptimalityTol to value 1e-09
Set parameter FeasibilityTol to value 1e-09
Set parameter MIPGap to value 0
Set parameter NodeLimit to value 1000000000
Set parameter SolutionLimit to value 1000000000
Gurobi Optimizer version 11.0.2 build v11.0.2rc0 (linux64 - "Ubuntu 22.04.4 LTS")

CPU model: Intel(R) Core(TM) i7-8700 CPU @ 3.20GHz, instruction set [SSE2|AVX|AVX2]
Thread count: 6 physical cores, 12 logical processors, using up to 12 threads

Optimize a model with 2200 rows, 26810 columns and 51664 nonzeros
Model fingerprint: 0xba973324
Model has 100 quadratic constraints
Variable types: 26290 continuous, 520 integer (520 binary)
Coefficient statistics:
  Matrix range     [4e-03, 3e+04]
  QMatrix range    [1e+00, 1e+00]
  QLMatrix range   [1e+00, 1e+00]
  Objective range  [1e+00, 1e+00]
  Bounds range     [1e+00, 1e+00]
  RHS range        [3e+02, 3e+04]
Presolve removed 610 rows and 15162 columns
Presolve time: 0.05s
Presolved: 14490 rows, 14848 columns, 83832 nonzeros
Presolved model has 3200 bilinear constraint(s)

Solving non-convex MIQCP

Variable types: 14418 continuous, 430 integer (430 binary)
Found heuristic solution: objective 100.0000000

Root relaxation: objective 9.000000e+01, 5082 iterations, 0.10 seconds (0.13 work units)

    Nodes    |    Current Node    |     Objective Bounds      |     Work
 Expl Unexpl |  Obj  Depth IntInf | Incumbent    BestBd   Gap | It/Node Time

     0     0   90.00000    0  609  100.00000   90.00000  10.0%     -    0s
     0     0   90.00000    0  609  100.00000   90.00000  10.0%     -    0s
H    0     0                      98.0000000   90.00000  8.16%     -    2s
H    0     0                      93.0000000   90.00000  3.23%     -    2s
     0     2   90.00000    0  609   93.00000   90.00000  3.23%     -    2s
H   72    74                      92.0000000   90.00000  2.17%   284    3s
H  115   119                      91.0000000   90.00000  1.10%   218    4s
   126    47   90.00000   15    0   91.00000   90.00000  1.10%   209    5s
H  128    45                      90.0000000   90.00000  0.00%   205   11s

Explored 128 nodes (48838 simplex iterations) in 11.97 seconds (13.52 work units)
Thread count was 12 (of 12 available processors)

Solution count 7: 90 90 91 ... 100

Optimal solution found (tolerance 0.00e+00)
Best objective 9.000000000000e+01, best bound 9.000000000000e+01, gap 0.0000%
Average accuracy over 1 experiments with 10 training points: 1.0
Set parameter IntegralityFocus to value 1
Set parameter OptimalityTol to value 1e-09
Set parameter FeasibilityTol to value 1e-09
Set parameter MIPGap to value 0
Set parameter NodeLimit to value 1000000000
Set parameter SolutionLimit to value 1000000000
Gurobi Optimizer version 11.0.2 build v11.0.2rc0 (linux64 - "Ubuntu 22.04.4 LTS")

CPU model: Intel(R) Core(TM) i7-8700 CPU @ 3.20GHz, instruction set [SSE2|AVX|AVX2]
Thread count: 6 physical cores, 12 logical processors, using up to 12 threads

Optimize a model with 4400 rows, 28170 columns and 105856 nonzeros
Model fingerprint: 0x7672c757
Model has 200 quadratic constraints
Variable types: 27130 continuous, 1040 integer (1040 binary)
Coefficient statistics:
  Matrix range     [4e-03, 3e+04]
  QMatrix range    [1e+00, 1e+00]
  QLMatrix range   [1e+00, 1e+00]
  Objective range  [1e+00, 1e+00]
  Bounds range     [1e+00, 1e+00]
  RHS range        [3e+02, 3e+04]
Presolve removed 1220 rows and 12404 columns
Presolve time: 0.10s
Presolved: 28980 rows, 22166 columns, 173680 nonzeros
Presolved model has 6400 bilinear constraint(s)

Solving non-convex MIQCP

Variable types: 21306 continuous, 860 integer (860 binary)
Found heuristic solution: objective 200.0000000
Deterministic concurrent LP optimizer: primal and dual simplex
Showing primal log only...

Concurrent spin time: 0.01s

Solved with primal simplex

Use crossover to convert LP symmetric solution to basic solution...

Root relaxation: objective 1.800000e+02, 11522 iterations, 0.19 seconds (0.22 work units)

    Nodes    |    Current Node    |     Objective Bounds      |     Work
 Expl Unexpl |  Obj  Depth IntInf | Incumbent    BestBd   Gap | It/Node Time

     0     0  180.00000    0 5412  200.00000  180.00000  10.0%     -    9s
     0     0  180.00000    0 5465  200.00000  180.00000  10.0%     -   12s
     0     0  180.00000    0 5442  200.00000  180.00000  10.0%     -   13s
     0     0  180.00000    0 5399  200.00000  180.00000  10.0%     -   25s
     0     0  180.00000    0 5392  200.00000  180.00000  10.0%     -   26s
     0     0  180.00000    0 5378  200.00000  180.00000  10.0%     -   39s
     0     0  180.00000    0 5369  200.00000  180.00000  10.0%     -   40s
     0     0  180.00000    0 5340  200.00000  180.00000  10.0%     -   53s
     0     0  180.00000    0 5338  200.00000  180.00000  10.0%     -   53s
     0     0  180.00000    0 5309  200.00000  180.00000  10.0%     -   66s
H    0     0                     198.0000000  180.00000  9.09%     -   66s
     0     0  180.00000    0 5308  198.00000  180.00000  9.09%     -   66s
     0     0  180.00000    0 5253  198.00000  180.00000  9.09%     -   78s
     0     0  180.00000    0 5252  198.00000  180.00000  9.09%     -   78s
     0     0  180.00000    0 5250  198.00000  180.00000  9.09%     -   89s
H    0     0                     197.0000000  180.00000  8.63%     -   89s
     0     0  180.00000    0 5250  197.00000  180.00000  8.63%     -   98s
H    0     0                     195.0000000  180.00000  7.69%     -  114s
     0     2  180.00000    0 5250  195.00000  180.00000  7.69%     -  129s
     1     4  180.00000    1 5249  195.00000  180.00000  7.69%  8520  130s
    25    32  180.00000    6 5311  195.00000  180.00000  7.69%   847  135s
H   31    38                     194.0000000  180.00000  7.22%   711  136s
    51    73  180.00000   10 5270  194.00000  180.00000  7.22%   510  140s
    72   129  180.00000   13 5250  194.00000  180.00000  7.22%   468  145s
H   91   129                     193.0000000  180.00000  6.74%   399  145s
   128   289  180.00000   22 5254  193.00000  180.00000  6.74%   333  157s
   288   542  180.00000   51 5262  193.00000  180.00000  6.74%   192  179s
   541   884  180.00000   94 5512  193.00000  180.00000  6.74%   228  206s
